686 789 784 776 879 780
795 724 781 769 724 682
962 774 890 719 740 725
733 903 691 823 764 762
707 999 729 742 787 609
775 694 762 761 813 716
902 781 763 973 650 719
753 779 736 762 965 631
705 944 896 729 698 778
938 791 738 693 890 761
